(declare-const a Real)
(declare-const c Real)
(declare-const b Real)
(assert (and (< 0 a) (and (< 0 b) (< 0 c))))
(assert (not (>= (+ (+ (/ a (^ (+ (^ a 2) (* (* 8 b) c)) 0.5)) (/ b (^ (+ (^ b 2) (* a (* 8 c))) 0.5))) (/ c (^ (+ (^ c 2) (* 8 (* a b))) 0.5))) 1)))
(check-sat)
(get-model)
(exit)
